c Generated map
c Size: 30 * 30, weights in range: 1 to 10, walls: True, with ratio 0.05
c dim 1 of 3
c
p sp 900 1568
c graph contains 900 nodes and 1568 arcs
c
a 1 31 3
a 31 1 3
a 1 2 4
a 2 1 4
a 2 32 7
a 32 2 7
a 2 3 1
a 3 2 1
a 3 33 10
a 33 3 10
a 3 4 10
a 4 3 10
a 4 34 6
a 34 4 6
a 4 5 9
a 5 4 9
a 5 35 1
a 35 5 1
a 5 6 9
a 6 5 9
a 6 36 10
a 36 6 10
a 6 7 4
a 7 6 4
a 7 37 2
a 37 7 2
a 7 8 8
a 8 7 8
a 8 38 10
a 38 8 10
a 8 9 10
a 9 8 10
a 9 10 6
a 10 9 6
a 10 40 4
a 40 10 4
a 10 11 8
a 11 10 8
a 11 41 6
a 41 11 6
a 11 12 6
a 12 11 6
a 12 42 8
a 42 12 8
a 12 13 3
a 13 12 3
a 13 43 5
a 43 13 5
a 13 14 10
a 14 13 10
a 14 44 3
a 44 14 3
a 14 15 1
a 15 14 1
a 15 45 9
a 45 15 9
a 15 16 9
a 16 15 9
a 16 46 5
a 46 16 5
a 16 17 8
a 17 16 8
a 17 47 4
a 47 17 4
a 17 18 8
a 18 17 8
a 18 48 10
a 48 18 10
a 18 19 3
a 19 18 3
a 19 49 2
a 49 19 2
a 19 20 8
a 20 19 8
a 20 50 9
a 50 20 9
a 20 21 9
a 21 20 9
a 21 51 9
a 51 21 9
a 21 22 7
a 22 21 7
a 22 52 1
a 52 22 1
a 22 23 1
a 23 22 1
a 23 53 5
a 53 23 5
a 23 24 8
a 24 23 8
a 24 54 9
a 54 24 9
a 24 25 1
a 25 24 1
a 25 55 8
a 55 25 8
a 25 26 5
a 26 25 5
a 26 56 1
a 56 26 1
a 26 27 1
a 27 26 1
a 27 57 5
a 57 27 5
a 27 28 1
a 28 27 1
a 28 58 9
a 58 28 9
a 28 29 9
a 29 28 9
a 29 59 9
a 59 29 9
a 29 30 7
a 30 29 7
a 30 60 10
a 60 30 10
a 31 61 10
a 61 31 10
a 31 32 1
a 32 31 1
a 32 62 8
a 62 32 8
a 32 33 3
a 33 32 3
a 33 63 8
a 63 33 8
a 33 34 6
a 34 33 6
a 34 64 7
a 64 34 7
a 34 35 4
a 35 34 4
a 35 65 2
a 65 35 2
a 35 36 10
a 36 35 10
a 36 66 3
a 66 36 3
a 36 37 2
a 37 36 2
a 37 67 9
a 67 37 9
a 37 38 5
a 38 37 5
a 38 68 7
a 68 38 7
a 40 70 7
a 70 40 7
a 40 41 6
a 41 40 6
a 41 71 1
a 71 41 1
a 41 42 10
a 42 41 10
a 42 72 8
a 72 42 8
a 42 43 8
a 43 42 8
a 43 73 6
a 73 43 6
a 43 44 2
a 44 43 2
a 44 74 5
a 74 44 5
a 44 45 8
a 45 44 8
a 45 75 7
a 75 45 7
a 45 46 1
a 46 45 1
a 46 47 4
a 47 46 4
a 47 77 4
a 77 47 4
a 47 48 10
a 48 47 10
a 48 78 10
a 78 48 10
a 48 49 3
a 49 48 3
a 49 50 4
a 50 49 4
a 50 80 6
a 80 50 6
a 50 51 3
a 51 50 3
a 51 81 9
a 81 51 9
a 51 52 5
a 52 51 5
a 52 82 5
a 82 52 5
a 52 53 3
a 53 52 3
a 53 83 8
a 83 53 8
a 53 54 4
a 54 53 4
a 54 84 3
a 84 54 3
a 54 55 4
a 55 54 4
a 55 85 7
a 85 55 7
a 55 56 5
a 56 55 5
a 56 86 7
a 86 56 7
a 56 57 9
a 57 56 9
a 57 87 3
a 87 57 3
a 57 58 5
a 58 57 5
a 58 88 3
a 88 58 3
a 58 59 10
a 59 58 10
a 59 89 7
a 89 59 7
a 59 60 4
a 60 59 4
a 60 90 10
a 90 60 10
a 61 91 2
a 91 61 2
a 61 62 2
a 62 61 2
a 62 92 4
a 92 62 4
a 62 63 4
a 63 62 4
a 63 93 6
a 93 63 6
a 63 64 2
a 64 63 2
a 64 94 9
a 94 64 9
a 64 65 7
a 65 64 7
a 65 95 9
a 95 65 9
a 65 66 5
a 66 65 5
a 66 96 9
a 96 66 9
a 66 67 9
a 67 66 9
a 67 97 4
a 97 67 4
a 67 68 1
a 68 67 1
a 68 98 2
a 98 68 2
a 68 69 6
a 69 68 6
a 69 99 4
a 99 69 4
a 69 70 6
a 70 69 6
a 70 100 2
a 100 70 2
a 70 71 7
a 71 70 7
a 71 101 9
a 101 71 9
a 71 72 9
a 72 71 9
a 72 102 10
a 102 72 10
a 72 73 2
a 73 72 2
a 73 103 9
a 103 73 9
a 73 74 6
a 74 73 6
a 74 104 3
a 104 74 3
a 74 75 8
a 75 74 8
a 75 105 3
a 105 75 3
a 77 107 8
a 107 77 8
a 77 78 8
a 78 77 8
a 78 108 6
a 108 78 6
a 80 81 5
a 81 80 5
a 81 111 6
a 111 81 6
a 81 82 2
a 82 81 2
a 82 112 7
a 112 82 7
a 82 83 7
a 83 82 7
a 83 113 10
a 113 83 10
a 83 84 6
a 84 83 6
a 84 85 4
a 85 84 4
a 85 115 6
a 115 85 6
a 85 86 8
a 86 85 8
a 86 116 2
a 116 86 2
a 86 87 8
a 87 86 8
a 87 117 7
a 117 87 7
a 87 88 5
a 88 87 5
a 88 118 10
a 118 88 10
a 88 89 9
a 89 88 9
a 89 119 10
a 119 89 10
a 89 90 8
a 90 89 8
a 90 120 4
a 120 90 4
a 91 121 3
a 121 91 3
a 91 92 1
a 92 91 1
a 92 122 10
a 122 92 10
a 92 93 2
a 93 92 2
a 93 123 10
a 123 93 10
a 93 94 10
a 94 93 10
a 94 124 4
a 124 94 4
a 94 95 4
a 95 94 4
a 95 125 2
a 125 95 2
a 95 96 5
a 96 95 5
a 96 126 6
a 126 96 6
a 96 97 9
a 97 96 9
a 97 127 7
a 127 97 7
a 97 98 5
a 98 97 5
a 98 128 3
a 128 98 3
a 98 99 5
a 99 98 5
a 99 129 9
a 129 99 9
a 99 100 9
a 100 99 9
a 100 130 3
a 130 100 3
a 100 101 3
a 101 100 3
a 101 131 5
a 131 101 5
a 101 102 3
a 102 101 3
a 102 132 8
a 132 102 8
a 102 103 1
a 103 102 1
a 103 133 9
a 133 103 9
a 103 104 6
a 104 103 6
a 104 134 9
a 134 104 9
a 104 105 6
a 105 104 6
a 105 135 5
a 135 105 5
a 105 106 4
a 106 105 4
a 106 136 10
a 136 106 10
a 106 107 9
a 107 106 9
a 107 137 8
a 137 107 8
a 107 108 2
a 108 107 2
a 108 109 1
a 109 108 1
a 109 139 3
a 139 109 3
a 111 141 4
a 141 111 4
a 111 112 4
a 112 111 4
a 112 142 4
a 142 112 4
a 112 113 6
a 113 112 6
a 113 143 1
a 143 113 1
a 115 145 6
a 145 115 6
a 115 116 10
a 116 115 10
a 116 146 5
a 146 116 5
a 116 117 8
a 117 116 8
a 117 147 5
a 147 117 5
a 117 118 5
a 118 117 5
a 118 148 2
a 148 118 2
a 118 119 7
a 119 118 7
a 119 149 8
a 149 119 8
a 119 120 2
a 120 119 2
a 120 150 7
a 150 120 7
a 121 151 2
a 151 121 2
a 121 122 1
a 122 121 1
a 122 152 6
a 152 122 6
a 122 123 10
a 123 122 10
a 123 153 9
a 153 123 9
a 123 124 6
a 124 123 6
a 124 154 3
a 154 124 3
a 124 125 9
a 125 124 9
a 125 155 2
a 155 125 2
a 125 126 10
a 126 125 10
a 126 156 3
a 156 126 3
a 126 127 2
a 127 126 2
a 127 157 3
a 157 127 3
a 127 128 10
a 128 127 10
a 128 158 3
a 158 128 3
a 128 129 1
a 129 128 1
a 129 159 8
a 159 129 8
a 129 130 10
a 130 129 10
a 130 160 7
a 160 130 7
a 130 131 7
a 131 130 7
a 131 161 7
a 161 131 7
a 131 132 8
a 132 131 8
a 132 162 8
a 162 132 8
a 132 133 9
a 133 132 9
a 133 163 8
a 163 133 8
a 133 134 3
a 134 133 3
a 134 164 2
a 164 134 2
a 134 135 7
a 135 134 7
a 135 165 10
a 165 135 10
a 135 136 8
a 136 135 8
a 136 166 8
a 166 136 8
a 136 137 7
a 137 136 7
a 137 167 10
a 167 137 10
a 139 169 1
a 169 139 1
a 139 140 5
a 140 139 5
a 140 170 3
a 170 140 3
a 140 141 7
a 141 140 7
a 141 171 1
a 171 141 1
a 141 142 9
a 142 141 9
a 142 172 3
a 172 142 3
a 142 143 7
a 143 142 7
a 143 173 10
a 173 143 10
a 143 144 10
a 144 143 10
a 144 174 3
a 174 144 3
a 144 145 1
a 145 144 1
a 145 175 2
a 175 145 2
a 145 146 1
a 146 145 1
a 146 176 5
a 176 146 5
a 146 147 8
a 147 146 8
a 147 177 7
a 177 147 7
a 147 148 4
a 148 147 4
a 148 178 6
a 178 148 6
a 148 149 5
a 149 148 5
a 149 179 2
a 179 149 2
a 149 150 1
a 150 149 1
a 150 180 9
a 180 150 9
a 151 181 7
a 181 151 7
a 151 152 6
a 152 151 6
a 152 182 7
a 182 152 7
a 152 153 9
a 153 152 9
a 153 183 5
a 183 153 5
a 153 154 9
a 154 153 9
a 154 155 1
a 155 154 1
a 155 185 4
a 185 155 4
a 155 156 3
a 156 155 3
a 156 186 9
a 186 156 9
a 156 157 10
a 157 156 10
a 157 187 10
a 187 157 10
a 157 158 8
a 158 157 8
a 158 188 7
a 188 158 7
a 158 159 9
a 159 158 9
a 159 189 10
a 189 159 10
a 159 160 10
a 160 159 10
a 160 190 8
a 190 160 8
a 160 161 5
a 161 160 5
a 161 191 2
a 191 161 2
a 161 162 10
a 162 161 10
a 162 192 6
a 192 162 6
a 162 163 7
a 163 162 7
a 163 193 2
a 193 163 2
a 163 164 3
a 164 163 3
a 164 194 9
a 194 164 9
a 164 165 10
a 165 164 10
a 165 195 7
a 195 165 7
a 165 166 10
a 166 165 10
a 166 196 1
a 196 166 1
a 166 167 7
a 167 166 7
a 167 197 1
a 197 167 1
a 167 168 9
a 168 167 9
a 168 169 3
a 169 168 3
a 169 199 8
a 199 169 8
a 169 170 3
a 170 169 3
a 170 200 3
a 200 170 3
a 170 171 5
a 171 170 5
a 171 201 1
a 201 171 1
a 171 172 9
a 172 171 9
a 172 202 3
a 202 172 3
a 172 173 2
a 173 172 2
a 173 174 10
a 174 173 10
a 174 204 4
a 204 174 4
a 174 175 5
a 175 174 5
a 175 205 1
a 205 175 1
a 175 176 10
a 176 175 10
a 176 206 2
a 206 176 2
a 176 177 5
a 177 176 5
a 177 207 6
a 207 177 6
a 177 178 9
a 178 177 9
a 178 208 2
a 208 178 2
a 178 179 9
a 179 178 9
a 179 209 2
a 209 179 2
a 179 180 2
a 180 179 2
a 180 210 3
a 210 180 3
a 181 211 4
a 211 181 4
a 181 182 2
a 182 181 2
a 182 212 1
a 212 182 1
a 182 183 6
a 183 182 6
a 183 213 6
a 213 183 6
a 185 215 1
a 215 185 1
a 185 186 10
a 186 185 10
a 186 216 7
a 216 186 7
a 186 187 1
a 187 186 1
a 187 217 1
a 217 187 1
a 187 188 6
a 188 187 6
a 188 218 5
a 218 188 5
a 188 189 6
a 189 188 6
a 189 190 4
a 190 189 4
a 190 220 6
a 220 190 6
a 190 191 6
a 191 190 6
a 191 221 10
a 221 191 10
a 191 192 2
a 192 191 2
a 192 222 5
a 222 192 5
a 192 193 8
a 193 192 8
a 193 223 10
a 223 193 10
a 193 194 9
a 194 193 9
a 194 224 7
a 224 194 7
a 194 195 2
a 195 194 2
a 195 225 2
a 225 195 2
a 195 196 10
a 196 195 10
a 196 226 10
a 226 196 10
a 196 197 4
a 197 196 4
a 197 227 7
a 227 197 7
a 199 229 5
a 229 199 5
a 199 200 10
a 200 199 10
a 200 230 1
a 230 200 1
a 200 201 6
a 201 200 6
a 201 231 8
a 231 201 8
a 201 202 1
a 202 201 1
a 202 232 8
a 232 202 8
a 204 234 5
a 234 204 5
a 204 205 5
a 205 204 5
a 205 235 7
a 235 205 7
a 205 206 7
a 206 205 7
a 206 236 2
a 236 206 2
a 206 207 3
a 207 206 3
a 207 237 6
a 237 207 6
a 207 208 2
a 208 207 2
a 208 238 7
a 238 208 7
a 208 209 8
a 209 208 8
a 209 239 6
a 239 209 6
a 209 210 3
a 210 209 3
a 210 240 3
a 240 210 3
a 211 241 10
a 241 211 10
a 211 212 2
a 212 211 2
a 212 242 5
a 242 212 5
a 212 213 7
a 213 212 7
a 213 243 3
a 243 213 3
a 213 214 1
a 214 213 1
a 214 244 4
a 244 214 4
a 214 215 2
a 215 214 2
a 215 245 6
a 245 215 6
a 215 216 4
a 216 215 4
a 216 246 1
a 246 216 1
a 216 217 8
a 217 216 8
a 217 247 2
a 247 217 2
a 217 218 9
a 218 217 9
a 218 248 4
a 248 218 4
a 220 221 6
a 221 220 6
a 221 251 9
a 251 221 9
a 221 222 8
a 222 221 8
a 222 252 6
a 252 222 6
a 222 223 9
a 223 222 9
a 223 253 4
a 253 223 4
a 223 224 8
a 224 223 8
a 224 254 5
a 254 224 5
a 224 225 9
a 225 224 9
a 225 226 8
a 226 225 8
a 226 256 1
a 256 226 1
a 226 227 8
a 227 226 8
a 227 257 7
a 257 227 7
a 227 228 4
a 228 227 4
a 228 258 5
a 258 228 5
a 228 229 6
a 229 228 6
a 229 259 6
a 259 229 6
a 229 230 4
a 230 229 4
a 230 260 4
a 260 230 4
a 230 231 1
a 231 230 1
a 231 261 8
a 261 231 8
a 231 232 6
a 232 231 6
a 232 262 4
a 262 232 4
a 232 233 7
a 233 232 7
a 233 263 8
a 263 233 8
a 233 234 8
a 234 233 8
a 234 264 9
a 264 234 9
a 234 235 2
a 235 234 2
a 235 265 9
a 265 235 9
a 235 236 2
a 236 235 2
a 236 266 10
a 266 236 10
a 236 237 1
a 237 236 1
a 237 267 8
a 267 237 8
a 237 238 1
a 238 237 1
a 238 268 4
a 268 238 4
a 238 239 1
a 239 238 1
a 239 269 1
a 269 239 1
a 239 240 5
a 240 239 5
a 240 270 9
a 270 240 9
a 241 271 2
a 271 241 2
a 241 242 3
a 242 241 3
a 242 272 2
a 272 242 2
a 242 243 3
a 243 242 3
a 243 273 10
a 273 243 10
a 243 244 3
a 244 243 3
a 244 274 3
a 274 244 3
a 244 245 9
a 245 244 9
a 245 275 9
a 275 245 9
a 245 246 7
a 246 245 7
a 246 276 7
a 276 246 7
a 246 247 6
a 247 246 6
a 247 277 4
a 277 247 4
a 247 248 2
a 248 247 2
a 248 278 6
a 278 248 6
a 248 249 8
a 249 248 8
a 249 279 2
a 279 249 2
a 251 252 6
a 252 251 6
a 252 282 9
a 282 252 9
a 252 253 9
a 253 252 9
a 253 283 7
a 283 253 7
a 253 254 1
a 254 253 1
a 254 284 2
a 284 254 2
a 256 286 10
a 286 256 10
a 256 257 10
a 257 256 10
a 257 287 7
a 287 257 7
a 257 258 4
a 258 257 4
a 258 288 10
a 288 258 10
a 258 259 3
a 259 258 3
a 259 289 8
a 289 259 8
a 259 260 5
a 260 259 5
a 260 290 7
a 290 260 7
a 260 261 4
a 261 260 4
a 261 291 5
a 291 261 5
a 261 262 4
a 262 261 4
a 262 292 2
a 292 262 2
a 262 263 7
a 263 262 7
a 263 293 8
a 293 263 8
a 263 264 5
a 264 263 5
a 264 294 3
a 294 264 3
a 264 265 1
a 265 264 1
a 265 266 3
a 266 265 3
a 266 296 5
a 296 266 5
a 266 267 8
a 267 266 8
a 267 297 10
a 297 267 10
a 267 268 9
a 268 267 9
a 268 298 5
a 298 268 5
a 268 269 5
a 269 268 5
a 269 299 2
a 299 269 2
a 269 270 3
a 270 269 3
a 271 301 8
a 301 271 8
a 271 272 1
a 272 271 1
a 272 302 4
a 302 272 4
a 272 273 3
a 273 272 3
a 273 303 9
a 303 273 9
a 273 274 1
a 274 273 1
a 274 304 5
a 304 274 5
a 274 275 3
a 275 274 3
a 275 305 3
a 305 275 3
a 275 276 1
a 276 275 1
a 276 306 8
a 306 276 8
a 276 277 10
a 277 276 10
a 277 307 4
a 307 277 4
a 277 278 4
a 278 277 4
a 278 308 9
a 308 278 9
a 278 279 9
a 279 278 9
a 279 309 10
a 309 279 10
a 279 280 8
a 280 279 8
a 280 310 4
a 310 280 4
a 282 312 9
a 312 282 9
a 282 283 8
a 283 282 8
a 283 313 8
a 313 283 8
a 283 284 7
a 284 283 7
a 284 314 9
a 314 284 9
a 286 316 5
a 316 286 5
a 286 287 2
a 287 286 2
a 287 317 1
a 317 287 1
a 287 288 4
a 288 287 4
a 288 318 2
a 318 288 2
a 288 289 9
a 289 288 9
a 289 319 1
a 319 289 1
a 289 290 9
a 290 289 9
a 290 320 8
a 320 290 8
a 290 291 9
a 291 290 9
a 291 321 5
a 321 291 5
a 291 292 2
a 292 291 2
a 292 322 2
a 322 292 2
a 292 293 10
a 293 292 10
a 293 323 3
a 323 293 3
a 293 294 1
a 294 293 1
a 294 324 10
a 324 294 10
a 296 326 5
a 326 296 5
a 296 297 5
a 297 296 5
a 297 327 10
a 327 297 10
a 297 298 9
a 298 297 9
a 298 328 6
a 328 298 6
a 298 299 10
a 299 298 10
a 299 329 1
a 329 299 1
a 301 331 5
a 331 301 5
a 301 302 1
a 302 301 1
a 302 332 6
a 332 302 6
a 302 303 7
a 303 302 7
a 303 333 9
a 333 303 9
a 303 304 4
a 304 303 4
a 304 334 5
a 334 304 5
a 304 305 8
a 305 304 8
a 305 335 3
a 335 305 3
a 305 306 6
a 306 305 6
a 306 307 2
a 307 306 2
a 307 337 8
a 337 307 8
a 307 308 1
a 308 307 1
a 308 338 6
a 338 308 6
a 308 309 5
a 309 308 5
a 309 339 2
a 339 309 2
a 309 310 6
a 310 309 6
a 310 340 9
a 340 310 9
a 310 311 4
a 311 310 4
a 311 341 8
a 341 311 8
a 311 312 3
a 312 311 3
a 312 342 7
a 342 312 7
a 312 313 1
a 313 312 1
a 313 343 2
a 343 313 2
a 313 314 9
a 314 313 9
a 314 344 4
a 344 314 4
a 314 315 6
a 315 314 6
a 315 345 2
a 345 315 2
a 315 316 4
a 316 315 4
a 316 346 10
a 346 316 10
a 316 317 8
a 317 316 8
a 317 347 1
a 347 317 1
a 317 318 10
a 318 317 10
a 318 348 4
a 348 318 4
a 318 319 3
a 319 318 3
a 319 349 9
a 349 319 9
a 319 320 9
a 320 319 9
a 320 350 9
a 350 320 9
a 320 321 9
a 321 320 9
a 321 351 7
a 351 321 7
a 321 322 9
a 322 321 9
a 322 352 3
a 352 322 3
a 322 323 2
a 323 322 2
a 323 353 10
a 353 323 10
a 323 324 6
a 324 323 6
a 324 354 4
a 354 324 4
a 324 325 8
a 325 324 8
a 325 326 5
a 326 325 5
a 326 356 10
a 356 326 10
a 326 327 10
a 327 326 10
a 327 357 8
a 357 327 8
a 327 328 10
a 328 327 10
a 328 358 6
a 358 328 6
a 328 329 4
a 329 328 4
a 329 359 2
a 359 329 2
a 329 330 3
a 330 329 3
a 331 361 10
a 361 331 10
a 331 332 2
a 332 331 2
a 332 362 9
a 362 332 9
a 332 333 4
a 333 332 4
a 333 363 4
a 363 333 4
a 333 334 5
a 334 333 5
a 334 364 9
a 364 334 9
a 334 335 2
a 335 334 2
a 335 365 10
a 365 335 10
a 337 367 8
a 367 337 8
a 337 338 10
a 338 337 10
a 338 368 8
a 368 338 8
a 338 339 9
a 339 338 9
a 339 369 7
a 369 339 7
a 339 340 4
a 340 339 4
a 340 370 3
a 370 340 3
a 340 341 7
a 341 340 7
a 341 371 7
a 371 341 7
a 341 342 6
a 342 341 6
a 342 343 9
a 343 342 9
a 343 373 1
a 373 343 1
a 343 344 4
a 344 343 4
a 344 374 10
a 374 344 10
a 344 345 1
a 345 344 1
a 345 375 9
a 375 345 9
a 345 346 9
a 346 345 9
a 346 376 5
a 376 346 5
a 346 347 7
a 347 346 7
a 347 377 3
a 377 347 3
a 347 348 5
a 348 347 5
a 348 378 1
a 378 348 1
a 348 349 2
a 349 348 2
a 349 379 7
a 379 349 7
a 349 350 7
a 350 349 7
a 350 380 5
a 380 350 5
a 350 351 6
a 351 350 6
a 351 381 9
a 381 351 9
a 351 352 5
a 352 351 5
a 352 382 8
a 382 352 8
a 352 353 9
a 353 352 9
a 353 383 2
a 383 353 2
a 353 354 2
a 354 353 2
a 354 384 1
a 384 354 1
a 356 386 2
a 386 356 2
a 356 357 2
a 357 356 2
a 357 387 8
a 387 357 8
a 357 358 3
a 358 357 3
a 358 388 9
a 388 358 9
a 358 359 5
a 359 358 5
a 359 389 8
a 389 359 8
a 361 391 4
a 391 361 4
a 361 362 9
a 362 361 9
a 362 392 5
a 392 362 5
a 362 363 10
a 363 362 10
a 363 393 9
a 393 363 9
a 363 364 8
a 364 363 8
a 364 394 10
a 394 364 10
a 364 365 1
a 365 364 1
a 365 395 7
a 395 365 7
a 365 366 3
a 366 365 3
a 366 396 4
a 396 366 4
a 366 367 6
a 367 366 6
a 367 397 8
a 397 367 8
a 367 368 3
a 368 367 3
a 368 398 7
a 398 368 7
a 368 369 2
a 369 368 2
a 369 399 10
a 399 369 10
a 369 370 2
a 370 369 2
a 370 400 5
a 400 370 5
a 370 371 7
a 371 370 7
a 371 401 7
a 401 371 7
a 373 403 5
a 403 373 5
a 373 374 5
a 374 373 5
a 374 404 6
a 404 374 6
a 374 375 7
a 375 374 7
a 375 405 5
a 405 375 5
a 375 376 2
a 376 375 2
a 376 406 9
a 406 376 9
a 376 377 2
a 377 376 2
a 377 407 7
a 407 377 7
a 377 378 3
a 378 377 3
a 378 408 5
a 408 378 5
a 378 379 8
a 379 378 8
a 379 409 1
a 409 379 1
a 379 380 5
a 380 379 5
a 380 410 2
a 410 380 2
a 380 381 6
a 381 380 6
a 381 411 4
a 411 381 4
a 381 382 3
a 382 381 3
a 382 412 8
a 412 382 8
a 382 383 10
a 383 382 10
a 383 413 9
a 413 383 9
a 383 384 9
a 384 383 9
a 384 414 2
a 414 384 2
a 384 385 4
a 385 384 4
a 385 415 1
a 415 385 1
a 385 386 6
a 386 385 6
a 386 416 9
a 416 386 9
a 386 387 7
a 387 386 7
a 387 417 7
a 417 387 7
a 387 388 8
a 388 387 8
a 388 418 10
a 418 388 10
a 388 389 1
a 389 388 1
a 389 390 2
a 390 389 2
a 390 420 10
a 420 390 10
a 391 421 6
a 421 391 6
a 391 392 1
a 392 391 1
a 392 422 6
a 422 392 6
a 392 393 10
a 393 392 10
a 393 423 7
a 423 393 7
a 393 394 10
a 394 393 10
a 394 424 1
a 424 394 1
a 394 395 4
a 395 394 4
a 395 425 10
a 425 395 10
a 395 396 2
a 396 395 2
a 396 426 8
a 426 396 8
a 396 397 7
a 397 396 7
a 397 427 6
a 427 397 6
a 397 398 6
a 398 397 6
a 398 428 3
a 428 398 3
a 398 399 5
a 399 398 5
a 399 429 1
a 429 399 1
a 399 400 4
a 400 399 4
a 400 430 4
a 430 400 4
a 400 401 7
a 401 400 7
a 401 431 2
a 431 401 2
a 401 402 3
a 402 401 3
a 402 432 7
a 432 402 7
a 402 403 3
a 403 402 3
a 403 433 4
a 433 403 4
a 403 404 7
a 404 403 7
a 404 434 6
a 434 404 6
a 404 405 10
a 405 404 10
a 405 435 1
a 435 405 1
a 405 406 10
a 406 405 10
a 406 436 1
a 436 406 1
a 406 407 8
a 407 406 8
a 407 437 10
a 437 407 10
a 407 408 5
a 408 407 5
a 408 438 10
a 438 408 10
a 408 409 1
a 409 408 1
a 409 439 10
a 439 409 10
a 409 410 7
a 410 409 7
a 410 440 9
a 440 410 9
a 410 411 10
a 411 410 10
a 411 441 9
a 441 411 9
a 411 412 2
a 412 411 2
a 412 442 5
a 442 412 5
a 412 413 8
a 413 412 8
a 413 443 8
a 443 413 8
a 413 414 8
a 414 413 8
a 414 444 2
a 444 414 2
a 414 415 7
a 415 414 7
a 415 445 6
a 445 415 6
a 415 416 5
a 416 415 5
a 416 446 5
a 446 416 5
a 416 417 8
a 417 416 8
a 417 447 8
a 447 417 8
a 417 418 5
a 418 417 5
a 418 448 9
a 448 418 9
a 421 451 10
a 451 421 10
a 421 422 6
a 422 421 6
a 422 452 10
a 452 422 10
a 422 423 6
a 423 422 6
a 423 453 10
a 453 423 10
a 423 424 3
a 424 423 3
a 424 454 3
a 454 424 3
a 424 425 6
a 425 424 6
a 425 455 3
a 455 425 3
a 425 426 5
a 426 425 5
a 426 456 1
a 456 426 1
a 426 427 9
a 427 426 9
a 427 457 5
a 457 427 5
a 427 428 2
a 428 427 2
a 428 458 4
a 458 428 4
a 428 429 5
a 429 428 5
a 429 459 9
a 459 429 9
a 429 430 5
a 430 429 5
a 430 460 2
a 460 430 2
a 430 431 7
a 431 430 7
a 431 461 8
a 461 431 8
a 431 432 5
a 432 431 5
a 432 462 7
a 462 432 7
a 432 433 7
a 433 432 7
a 433 434 2
a 434 433 2
a 434 464 8
a 464 434 8
a 434 435 7
a 435 434 7
a 435 465 7
a 465 435 7
a 435 436 7
a 436 435 7
a 436 466 3
a 466 436 3
a 436 437 5
a 437 436 5
a 437 467 1
a 467 437 1
a 437 438 8
a 438 437 8
a 438 468 4
a 468 438 4
a 438 439 8
a 439 438 8
a 439 469 5
a 469 439 5
a 439 440 10
a 440 439 10
a 440 470 3
a 470 440 3
a 440 441 5
a 441 440 5
a 441 471 1
a 471 441 1
a 441 442 7
a 442 441 7
a 442 472 10
a 472 442 10
a 442 443 6
a 443 442 6
a 443 473 6
a 473 443 6
a 443 444 6
a 444 443 6
a 444 474 8
a 474 444 8
a 444 445 2
a 445 444 2
a 445 475 1
a 475 445 1
a 445 446 4
a 446 445 4
a 446 476 10
a 476 446 10
a 446 447 5
a 447 446 5
a 447 477 5
a 477 447 5
a 447 448 2
a 448 447 2
a 448 478 2
a 478 448 2
a 448 449 10
a 449 448 10
a 449 479 1
a 479 449 1
a 451 452 3
a 452 451 3
a 452 482 10
a 482 452 10
a 452 453 7
a 453 452 7
a 453 483 3
a 483 453 3
a 453 454 3
a 454 453 3
a 454 484 10
a 484 454 10
a 454 455 9
a 455 454 9
a 455 485 9
a 485 455 9
a 455 456 3
a 456 455 3
a 456 486 6
a 486 456 6
a 456 457 3
a 457 456 3
a 457 487 2
a 487 457 2
a 457 458 2
a 458 457 2
a 458 488 8
a 488 458 8
a 458 459 8
a 459 458 8
a 459 489 8
a 489 459 8
a 459 460 6
a 460 459 6
a 460 490 10
a 490 460 10
a 460 461 6
a 461 460 6
a 461 491 7
a 491 461 7
a 461 462 5
a 462 461 5
a 462 492 5
a 492 462 5
a 464 494 8
a 494 464 8
a 464 465 10
a 465 464 10
a 465 495 1
a 495 465 1
a 465 466 2
a 466 465 2
a 466 496 6
a 496 466 6
a 466 467 9
a 467 466 9
a 467 497 10
a 497 467 10
a 467 468 8
a 468 467 8
a 468 498 6
a 498 468 6
a 468 469 2
a 469 468 2
a 469 499 9
a 499 469 9
a 469 470 8
a 470 469 8
a 470 500 8
a 500 470 8
a 470 471 4
a 471 470 4
a 471 501 7
a 501 471 7
a 471 472 2
a 472 471 2
a 472 502 10
a 502 472 10
a 472 473 5
a 473 472 5
a 473 503 7
a 503 473 7
a 473 474 10
a 474 473 10
a 474 504 7
a 504 474 7
a 474 475 7
a 475 474 7
a 475 505 10
a 505 475 10
a 475 476 7
a 476 475 7
a 476 506 9
a 506 476 9
a 476 477 10
a 477 476 10
a 477 507 10
a 507 477 10
a 477 478 1
a 478 477 1
a 478 508 4
a 508 478 4
a 478 479 1
a 479 478 1
a 479 509 1
a 509 479 1
a 479 480 9
a 480 479 9
a 480 510 8
a 510 480 8
a 482 512 6
a 512 482 6
a 482 483 1
a 483 482 1
a 483 513 6
a 513 483 6
a 483 484 3
a 484 483 3
a 484 514 6
a 514 484 6
a 484 485 6
a 485 484 6
a 485 515 1
a 515 485 1
a 485 486 7
a 486 485 7
a 486 516 10
a 516 486 10
a 486 487 3
a 487 486 3
a 487 517 8
a 517 487 8
a 487 488 4
a 488 487 4
a 488 518 8
a 518 488 8
a 488 489 8
a 489 488 8
a 489 519 1
a 519 489 1
a 489 490 6
a 490 489 6
a 490 520 7
a 520 490 7
a 490 491 10
a 491 490 10
a 491 521 6
a 521 491 6
a 491 492 5
a 492 491 5
a 492 522 2
a 522 492 2
a 492 493 5
a 493 492 5
a 493 494 8
a 494 493 8
a 494 524 6
a 524 494 6
a 494 495 7
a 495 494 7
a 495 525 9
a 525 495 9
a 495 496 1
a 496 495 1
a 496 526 9
a 526 496 9
a 496 497 1
a 497 496 1
a 497 527 6
a 527 497 6
a 497 498 1
a 498 497 1
a 498 528 10
a 528 498 10
a 498 499 4
a 499 498 4
a 499 529 1
a 529 499 1
a 499 500 6
a 500 499 6
a 500 501 8
a 501 500 8
a 501 531 1
a 531 501 1
a 501 502 7
a 502 501 7
a 502 532 1
a 532 502 1
a 502 503 6
a 503 502 6
a 503 533 9
a 533 503 9
a 503 504 5
a 504 503 5
a 504 534 1
a 534 504 1
a 504 505 6
a 505 504 6
a 505 535 9
a 535 505 9
a 505 506 10
a 506 505 10
a 506 536 4
a 536 506 4
a 506 507 8
a 507 506 8
a 507 537 6
a 537 507 6
a 507 508 9
a 508 507 9
a 508 509 4
a 509 508 4
a 509 539 1
a 539 509 1
a 509 510 8
a 510 509 8
a 510 540 2
a 540 510 2
a 511 541 3
a 541 511 3
a 511 512 3
a 512 511 3
a 512 542 3
a 542 512 3
a 512 513 9
a 513 512 9
a 513 543 2
a 543 513 2
a 513 514 1
a 514 513 1
a 514 544 1
a 544 514 1
a 514 515 1
a 515 514 1
a 515 545 7
a 545 515 7
a 515 516 9
a 516 515 9
a 516 546 9
a 546 516 9
a 516 517 6
a 517 516 6
a 517 547 5
a 547 517 5
a 517 518 1
a 518 517 1
a 518 548 3
a 548 518 3
a 518 519 5
a 519 518 5
a 519 549 10
a 549 519 10
a 519 520 9
a 520 519 9
a 520 550 10
a 550 520 10
a 520 521 7
a 521 520 7
a 521 551 1
a 551 521 1
a 521 522 8
a 522 521 8
a 522 552 5
a 552 522 5
a 524 554 10
a 554 524 10
a 524 525 5
a 525 524 5
a 525 555 7
a 555 525 7
a 525 526 3
a 526 525 3
a 526 556 3
a 556 526 3
a 526 527 7
a 527 526 7
a 527 557 4
a 557 527 4
a 527 528 7
a 528 527 7
a 528 558 6
a 558 528 6
a 528 529 3
a 529 528 3
a 529 559 2
a 559 529 2
a 531 561 4
a 561 531 4
a 531 532 6
a 532 531 6
a 532 562 3
a 562 532 3
a 532 533 3
a 533 532 3
a 533 563 5
a 563 533 5
a 533 534 9
a 534 533 9
a 534 564 7
a 564 534 7
a 534 535 4
a 535 534 4
a 535 565 1
a 565 535 1
a 535 536 3
a 536 535 3
a 536 566 1
a 566 536 1
a 536 537 7
a 537 536 7
a 537 567 3
a 567 537 3
a 539 569 5
a 569 539 5
a 539 540 5
a 540 539 5
a 540 570 8
a 570 540 8
a 541 571 3
a 571 541 3
a 541 542 1
a 542 541 1
a 542 572 2
a 572 542 2
a 542 543 3
a 543 542 3
a 543 573 1
a 573 543 1
a 543 544 5
a 544 543 5
a 544 574 3
a 574 544 3
a 544 545 5
a 545 544 5
a 545 575 8
a 575 545 8
a 545 546 1
a 546 545 1
a 546 576 6
a 576 546 6
a 546 547 2
a 547 546 2
a 547 577 10
a 577 547 10
a 547 548 5
a 548 547 5
a 548 578 1
a 578 548 1
a 548 549 4
a 549 548 4
a 549 579 8
a 579 549 8
a 549 550 4
a 550 549 4
a 550 580 9
a 580 550 9
a 550 551 10
a 551 550 10
a 551 581 2
a 581 551 2
a 551 552 6
a 552 551 6
a 552 582 2
a 582 552 2
a 552 553 10
a 553 552 10
a 553 583 7
a 583 553 7
a 553 554 4
a 554 553 4
a 554 584 9
a 584 554 9
a 554 555 1
a 555 554 1
a 555 585 10
a 585 555 10
a 555 556 8
a 556 555 8
a 556 586 5
a 586 556 5
a 556 557 10
a 557 556 10
a 557 587 6
a 587 557 6
a 557 558 3
a 558 557 3
a 558 588 4
a 588 558 4
a 558 559 1
a 559 558 1
a 559 589 9
a 589 559 9
a 559 560 7
a 560 559 7
a 560 590 10
a 590 560 10
a 560 561 10
a 561 560 10
a 561 591 8
a 591 561 8
a 561 562 8
a 562 561 8
a 562 592 1
a 592 562 1
a 562 563 5
a 563 562 5
a 563 564 5
a 564 563 5
a 564 594 3
a 594 564 3
a 564 565 2
a 565 564 2
a 565 595 1
a 595 565 1
a 565 566 8
a 566 565 8
a 566 596 2
a 596 566 2
a 566 567 10
a 567 566 10
a 567 597 7
a 597 567 7
a 567 568 9
a 568 567 9
a 568 598 3
a 598 568 3
a 568 569 2
a 569 568 2
a 569 599 4
a 599 569 4
a 569 570 5
a 570 569 5
a 570 600 3
a 600 570 3
a 571 601 5
a 601 571 5
a 571 572 2
a 572 571 2
a 572 602 10
a 602 572 10
a 572 573 4
a 573 572 4
a 573 603 5
a 603 573 5
a 573 574 6
a 574 573 6
a 574 604 10
a 604 574 10
a 574 575 4
a 575 574 4
a 575 605 2
a 605 575 2
a 575 576 10
a 576 575 10
a 576 577 4
a 577 576 4
a 577 607 1
a 607 577 1
a 577 578 4
a 578 577 4
a 578 608 3
a 608 578 3
a 578 579 9
a 579 578 9
a 579 609 3
a 609 579 3
a 579 580 4
a 580 579 4
a 580 610 10
a 610 580 10
a 580 581 5
a 581 580 5
a 581 611 10
a 611 581 10
a 581 582 1
a 582 581 1
a 582 612 6
a 612 582 6
a 582 583 5
a 583 582 5
a 583 613 6
a 613 583 6
a 583 584 10
a 584 583 10
a 584 614 10
a 614 584 10
a 584 585 3
a 585 584 3
a 585 615 8
a 615 585 8
a 585 586 3
a 586 585 3
a 586 616 8
a 616 586 8
a 586 587 8
a 587 586 8
a 587 617 7
a 617 587 7
a 587 588 3
a 588 587 3
a 588 589 5
a 589 588 5
a 589 619 9
a 619 589 9
a 589 590 8
a 590 589 8
a 590 620 2
a 620 590 2
a 590 591 6
a 591 590 6
a 591 621 6
a 621 591 6
a 591 592 1
a 592 591 1
a 592 622 3
a 622 592 3
a 594 624 2
a 624 594 2
a 594 595 8
a 595 594 8
a 595 625 3
a 625 595 3
a 595 596 5
a 596 595 5
a 596 626 5
a 626 596 5
a 596 597 4
a 597 596 4
a 597 627 3
a 627 597 3
a 597 598 1
a 598 597 1
a 598 628 3
a 628 598 3
a 598 599 9
a 599 598 9
a 599 629 4
a 629 599 4
a 599 600 9
a 600 599 9
a 600 630 6
a 630 600 6
a 601 631 3
a 631 601 3
a 601 602 8
a 602 601 8
a 602 632 2
a 632 602 2
a 602 603 3
a 603 602 3
a 603 633 9
a 633 603 9
a 603 604 1
a 604 603 1
a 604 634 8
a 634 604 8
a 604 605 2
a 605 604 2
a 607 608 10
a 608 607 10
a 608 638 2
a 638 608 2
a 608 609 9
a 609 608 9
a 609 639 10
a 639 609 10
a 609 610 3
a 610 609 3
a 610 640 6
a 640 610 6
a 610 611 9
a 611 610 9
a 611 641 10
a 641 611 10
a 611 612 4
a 612 611 4
a 612 642 1
a 642 612 1
a 612 613 10
a 613 612 10
a 613 643 6
a 643 613 6
a 613 614 3
a 614 613 3
a 614 644 6
a 644 614 6
a 614 615 8
a 615 614 8
a 615 645 6
a 645 615 6
a 615 616 7
a 616 615 7
a 616 646 5
a 646 616 5
a 616 617 9
a 617 616 9
a 617 647 3
a 647 617 3
a 619 649 1
a 649 619 1
a 619 620 4
a 620 619 4
a 620 650 1
a 650 620 1
a 620 621 1
a 621 620 1
a 621 651 1
a 651 621 1
a 621 622 8
a 622 621 8
a 622 652 4
a 652 622 4
a 622 623 10
a 623 622 10
a 623 653 10
a 653 623 10
a 623 624 9
a 624 623 9
a 624 654 7
a 654 624 7
a 624 625 3
a 625 624 3
a 625 655 6
a 655 625 6
a 625 626 5
a 626 625 5
a 626 656 3
a 656 626 3
a 626 627 1
a 627 626 1
a 627 657 10
a 657 627 10
a 627 628 7
a 628 627 7
a 628 658 6
a 658 628 6
a 628 629 6
a 629 628 6
a 629 659 9
a 659 629 9
a 629 630 7
a 630 629 7
a 630 660 6
a 660 630 6
a 631 661 7
a 661 631 7
a 631 632 3
a 632 631 3
a 632 662 2
a 662 632 2
a 632 633 6
a 633 632 6
a 633 663 3
a 663 633 3
a 633 634 1
a 634 633 1
a 634 664 6
a 664 634 6
a 636 666 6
a 666 636 6
a 638 668 4
a 668 638 4
a 638 639 2
a 639 638 2
a 639 669 5
a 669 639 5
a 639 640 2
a 640 639 2
a 640 670 2
a 670 640 2
a 640 641 3
a 641 640 3
a 641 671 1
a 671 641 1
a 641 642 3
a 642 641 3
a 642 672 5
a 672 642 5
a 642 643 2
a 643 642 2
a 643 673 1
a 673 643 1
a 643 644 3
a 644 643 3
a 644 645 5
a 645 644 5
a 645 675 2
a 675 645 2
a 645 646 7
a 646 645 7
a 646 676 2
a 676 646 2
a 646 647 7
a 647 646 7
a 647 677 10
a 677 647 10
a 647 648 8
a 648 647 8
a 648 678 9
a 678 648 9
a 648 649 9
a 649 648 9
a 649 679 9
a 679 649 9
a 649 650 8
a 650 649 8
a 650 680 5
a 680 650 5
a 650 651 1
a 651 650 1
a 651 681 5
a 681 651 5
a 651 652 1
a 652 651 1
a 652 682 9
a 682 652 9
a 652 653 10
a 653 652 10
a 653 683 2
a 683 653 2
a 653 654 6
a 654 653 6
a 654 655 6
a 655 654 6
a 655 685 10
a 685 655 10
a 655 656 8
a 656 655 8
a 656 686 8
a 686 656 8
a 656 657 1
a 657 656 1
a 657 687 6
a 687 657 6
a 657 658 6
a 658 657 6
a 658 688 9
a 688 658 9
a 658 659 1
a 659 658 1
a 659 689 2
a 689 659 2
a 659 660 4
a 660 659 4
a 660 690 6
a 690 660 6
a 661 691 1
a 691 661 1
a 661 662 6
a 662 661 6
a 662 692 8
a 692 662 8
a 662 663 8
a 663 662 8
a 663 693 2
a 693 663 2
a 663 664 4
a 664 663 4
a 664 694 10
a 694 664 10
a 664 665 3
a 665 664 3
a 665 695 8
a 695 665 8
a 665 666 5
a 666 665 5
a 666 696 2
a 696 666 2
a 666 667 1
a 667 666 1
a 667 697 6
a 697 667 6
a 667 668 8
a 668 667 8
a 668 698 10
a 698 668 10
a 668 669 10
a 669 668 10
a 669 699 8
a 699 669 8
a 669 670 9
a 670 669 9
a 670 700 10
a 700 670 10
a 670 671 10
a 671 670 10
a 671 701 1
a 701 671 1
a 671 672 1
a 672 671 1
a 672 702 9
a 702 672 9
a 672 673 9
a 673 672 9
a 673 703 10
a 703 673 10
a 675 705 4
a 705 675 4
a 675 676 1
a 676 675 1
a 676 677 3
a 677 676 3
a 677 707 5
a 707 677 5
a 677 678 9
a 678 677 9
a 678 708 6
a 708 678 6
a 678 679 2
a 679 678 2
a 679 709 2
a 709 679 2
a 679 680 8
a 680 679 8
a 680 710 5
a 710 680 5
a 680 681 8
a 681 680 8
a 681 711 9
a 711 681 9
a 681 682 9
a 682 681 9
a 682 712 5
a 712 682 5
a 682 683 3
a 683 682 3
a 683 713 3
a 713 683 3
a 685 686 10
a 686 685 10
a 686 716 1
a 716 686 1
a 686 687 8
a 687 686 8
a 687 717 8
a 717 687 8
a 687 688 2
a 688 687 2
a 688 689 1
a 689 688 1
a 689 719 6
a 719 689 6
a 689 690 10
a 690 689 10
a 690 720 2
a 720 690 2
a 691 721 4
a 721 691 4
a 691 692 4
a 692 691 4
a 692 722 2
a 722 692 2
a 692 693 5
a 693 692 5
a 693 723 9
a 723 693 9
a 693 694 9
a 694 693 9
a 694 695 1
a 695 694 1
a 695 725 5
a 725 695 5
a 695 696 6
a 696 695 6
a 696 726 1
a 726 696 1
a 696 697 7
a 697 696 7
a 697 727 1
a 727 697 1
a 697 698 9
a 698 697 9
a 698 728 3
a 728 698 3
a 698 699 5
a 699 698 5
a 699 729 3
a 729 699 3
a 699 700 1
a 700 699 1
a 700 730 7
a 730 700 7
a 700 701 9
a 701 700 9
a 701 731 5
a 731 701 5
a 701 702 6
a 702 701 6
a 702 732 7
a 732 702 7
a 702 703 1
a 703 702 1
a 703 733 7
a 733 703 7
a 703 704 7
a 704 703 7
a 704 734 5
a 734 704 5
a 704 705 6
a 705 704 6
a 705 735 9
a 735 705 9
a 707 737 10
a 737 707 10
a 707 708 9
a 708 707 9
a 708 738 10
a 738 708 10
a 708 709 10
a 709 708 10
a 709 739 9
a 739 709 9
a 709 710 1
a 710 709 1
a 710 740 5
a 740 710 5
a 710 711 9
a 711 710 9
a 711 741 8
a 741 711 8
a 711 712 4
a 712 711 4
a 712 742 6
a 742 712 6
a 712 713 6
a 713 712 6
a 713 743 2
a 743 713 2
a 713 714 7
a 714 713 7
a 716 746 10
a 746 716 10
a 716 717 3
a 717 716 3
a 717 747 9
a 747 717 9
a 719 749 4
a 749 719 4
a 719 720 6
a 720 719 6
a 721 751 1
a 751 721 1
a 721 722 10
a 722 721 10
a 722 752 1
a 752 722 1
a 722 723 10
a 723 722 10
a 723 753 7
a 753 723 7
a 725 755 5
a 755 725 5
a 725 726 9
a 726 725 9
a 726 756 3
a 756 726 3
a 726 727 6
a 727 726 6
a 727 757 2
a 757 727 2
a 727 728 5
a 728 727 5
a 728 758 9
a 758 728 9
a 728 729 6
a 729 728 6
a 729 759 3
a 759 729 3
a 729 730 7
a 730 729 7
a 730 760 4
a 760 730 4
a 730 731 9
a 731 730 9
a 731 761 1
a 761 731 1
a 731 732 1
a 732 731 1
a 732 762 4
a 762 732 4
a 732 733 9
a 733 732 9
a 733 763 3
a 763 733 3
a 733 734 6
a 734 733 6
a 734 764 5
a 764 734 5
a 734 735 8
a 735 734 8
a 735 765 10
a 765 735 10
a 735 736 5
a 736 735 5
a 736 766 10
a 766 736 10
a 736 737 3
a 737 736 3
a 737 767 3
a 767 737 3
a 737 738 8
a 738 737 8
a 738 768 1
a 768 738 1
a 738 739 5
a 739 738 5
a 739 769 2
a 769 739 2
a 739 740 1
a 740 739 1
a 740 770 5
a 770 740 5
a 740 741 3
a 741 740 3
a 741 771 8
a 771 741 8
a 741 742 2
a 742 741 2
a 742 772 9
a 772 742 9
a 742 743 7
a 743 742 7
a 743 773 10
a 773 743 10
a 745 775 6
a 775 745 6
a 745 746 4
a 746 745 4
a 746 776 9
a 776 746 9
a 746 747 10
a 747 746 10
a 747 777 5
a 777 747 5
a 747 748 6
a 748 747 6
a 748 749 1
a 749 748 1
a 749 779 6
a 779 749 6
a 751 781 3
a 781 751 3
a 751 752 3
a 752 751 3
a 752 782 9
a 782 752 9
a 752 753 5
a 753 752 5
a 753 783 1
a 783 753 1
a 753 754 1
a 754 753 1
a 754 784 6
a 784 754 6
a 754 755 2
a 755 754 2
a 755 785 7
a 785 755 7
a 755 756 8
a 756 755 8
a 756 786 8
a 786 756 8
a 756 757 8
a 757 756 8
a 757 787 6
a 787 757 6
a 757 758 3
a 758 757 3
a 758 788 10
a 788 758 10
a 758 759 10
a 759 758 10
a 759 789 6
a 789 759 6
a 759 760 2
a 760 759 2
a 760 790 5
a 790 760 5
a 760 761 1
a 761 760 1
a 761 791 7
a 791 761 7
a 761 762 6
a 762 761 6
a 762 792 10
a 792 762 10
a 762 763 4
a 763 762 4
a 763 793 6
a 793 763 6
a 763 764 9
a 764 763 9
a 764 765 2
a 765 764 2
a 765 795 3
a 795 765 3
a 765 766 5
a 766 765 5
a 766 796 7
a 796 766 7
a 766 767 6
a 767 766 6
a 767 797 10
a 797 767 10
a 767 768 4
a 768 767 4
a 768 798 3
a 798 768 3
a 768 769 1
a 769 768 1
a 769 799 8
a 799 769 8
a 769 770 6
a 770 769 6
a 770 800 2
a 800 770 2
a 770 771 6
a 771 770 6
a 771 801 6
a 801 771 6
a 771 772 9
a 772 771 9
a 772 802 8
a 802 772 8
a 772 773 9
a 773 772 9
a 773 803 5
a 803 773 5
a 773 774 2
a 774 773 2
a 774 804 3
a 804 774 3
a 774 775 9
a 775 774 9
a 775 805 8
a 805 775 8
a 775 776 1
a 776 775 1
a 776 806 6
a 806 776 6
a 776 777 5
a 777 776 5
a 777 807 6
a 807 777 6
a 779 809 8
a 809 779 8
a 779 780 1
a 780 779 1
a 780 810 10
a 810 780 10
a 781 811 2
a 811 781 2
a 781 782 3
a 782 781 3
a 782 812 9
a 812 782 9
a 782 783 2
a 783 782 2
a 783 813 2
a 813 783 2
a 783 784 3
a 784 783 3
a 784 814 7
a 814 784 7
a 784 785 5
a 785 784 5
a 785 815 6
a 815 785 6
a 785 786 2
a 786 785 2
a 786 816 4
a 816 786 4
a 786 787 4
a 787 786 4
a 787 817 5
a 817 787 5
a 787 788 4
a 788 787 4
a 788 818 8
a 818 788 8
a 788 789 1
a 789 788 1
a 789 819 4
a 819 789 4
a 789 790 10
a 790 789 10
a 790 820 6
a 820 790 6
a 790 791 5
a 791 790 5
a 791 821 1
a 821 791 1
a 791 792 7
a 792 791 7
a 792 822 7
a 822 792 7
a 792 793 3
a 793 792 3
a 793 823 5
a 823 793 5
a 795 825 2
a 825 795 2
a 795 796 5
a 796 795 5
a 796 826 3
a 826 796 3
a 796 797 2
a 797 796 2
a 797 827 1
a 827 797 1
a 797 798 4
a 798 797 4
a 798 828 10
a 828 798 10
a 798 799 8
a 799 798 8
a 799 829 7
a 829 799 7
a 799 800 4
a 800 799 4
a 800 830 2
a 830 800 2
a 800 801 10
a 801 800 10
a 801 831 4
a 831 801 4
a 801 802 3
a 802 801 3
a 802 832 1
a 832 802 1
a 802 803 7
a 803 802 7
a 803 833 2
a 833 803 2
a 803 804 6
a 804 803 6
a 804 834 6
a 834 804 6
a 804 805 8
a 805 804 8
a 805 835 7
a 835 805 7
a 805 806 2
a 806 805 2
a 806 836 8
a 836 806 8
a 806 807 3
a 807 806 3
a 807 837 9
a 837 807 9
a 809 839 3
a 839 809 3
a 809 810 9
a 810 809 9
a 810 840 2
a 840 810 2
a 811 841 3
a 841 811 3
a 811 812 10
a 812 811 10
a 812 842 6
a 842 812 6
a 812 813 2
a 813 812 2
a 813 843 2
a 843 813 2
a 813 814 3
a 814 813 3
a 814 844 7
a 844 814 7
a 814 815 1
a 815 814 1
a 815 845 6
a 845 815 6
a 815 816 5
a 816 815 5
a 816 846 5
a 846 816 5
a 816 817 7
a 817 816 7
a 817 847 1
a 847 817 1
a 817 818 5
a 818 817 5
a 818 848 10
a 848 818 10
a 818 819 7
a 819 818 7
a 819 849 7
a 849 819 7
a 819 820 10
a 820 819 10
a 820 850 2
a 850 820 2
a 820 821 2
a 821 820 2
a 821 851 1
a 851 821 1
a 821 822 10
a 822 821 10
a 822 852 10
a 852 822 10
a 822 823 7
a 823 822 7
a 823 853 10
a 853 823 10
a 823 824 9
a 824 823 9
a 824 854 7
a 854 824 7
a 824 825 1
a 825 824 1
a 825 855 7
a 855 825 7
a 825 826 9
a 826 825 9
a 826 856 9
a 856 826 9
a 826 827 9
a 827 826 9
a 827 857 3
a 857 827 3
a 827 828 3
a 828 827 3
a 828 858 4
a 858 828 4
a 828 829 10
a 829 828 10
a 829 859 2
a 859 829 2
a 829 830 3
a 830 829 3
a 830 831 7
a 831 830 7
a 831 861 9
a 861 831 9
a 831 832 5
a 832 831 5
a 832 862 7
a 862 832 7
a 832 833 3
a 833 832 3
a 833 863 4
a 863 833 4
a 833 834 9
a 834 833 9
a 834 864 5
a 864 834 5
a 834 835 5
a 835 834 5
a 835 865 1
a 865 835 1
a 835 836 7
a 836 835 7
a 836 866 4
a 866 836 4
a 836 837 10
a 837 836 10
a 837 867 10
a 867 837 10
a 837 838 7
a 838 837 7
a 838 868 3
a 868 838 3
a 838 839 10
a 839 838 10
a 839 869 8
a 869 839 8
a 839 840 10
a 840 839 10
a 840 870 1
a 870 840 1
a 841 871 8
a 871 841 8
a 841 842 9
a 842 841 9
a 842 872 2
a 872 842 2
a 842 843 9
a 843 842 9
a 843 873 4
a 873 843 4
a 843 844 2
a 844 843 2
a 844 874 7
a 874 844 7
a 844 845 6
a 845 844 6
a 845 875 6
a 875 845 6
a 845 846 6
a 846 845 6
a 846 876 7
a 876 846 7
a 846 847 7
a 847 846 7
a 847 877 6
a 877 847 6
a 847 848 5
a 848 847 5
a 848 878 10
a 878 848 10
a 848 849 5
a 849 848 5
a 849 879 1
a 879 849 1
a 849 850 6
a 850 849 6
a 850 880 8
a 880 850 8
a 850 851 6
a 851 850 6
a 851 881 3
a 881 851 3
a 851 852 1
a 852 851 1
a 852 853 1
a 853 852 1
a 853 883 10
a 883 853 10
a 853 854 5
a 854 853 5
a 854 884 7
a 884 854 7
a 854 855 3
a 855 854 3
a 855 885 9
a 885 855 9
a 855 856 4
a 856 855 4
a 856 886 5
a 886 856 5
a 856 857 5
a 857 856 5
a 857 887 5
a 887 857 5
a 857 858 4
a 858 857 4
a 858 888 1
a 888 858 1
a 858 859 7
a 859 858 7
a 859 889 5
a 889 859 5
a 861 891 1
a 891 861 1
a 861 862 9
a 862 861 9
a 862 892 7
a 892 862 7
a 862 863 10
a 863 862 10
a 863 893 5
a 893 863 5
a 863 864 7
a 864 863 7
a 864 894 4
a 894 864 4
a 864 865 5
a 865 864 5
a 865 895 5
a 895 865 5
a 865 866 9
a 866 865 9
a 866 896 8
a 896 866 8
a 866 867 8
a 867 866 8
a 867 897 3
a 897 867 3
a 867 868 8
a 868 867 8
a 868 898 2
a 898 868 2
a 868 869 5
a 869 868 5
a 869 899 6
a 899 869 6
a 869 870 4
a 870 869 4
a 870 900 8
a 900 870 8
a 871 872 10
a 872 871 10
a 872 873 2
a 873 872 2
a 873 874 6
a 874 873 6
a 874 875 8
a 875 874 8
a 875 876 5
a 876 875 5
a 876 877 9
a 877 876 9
a 877 878 8
a 878 877 8
a 878 879 6
a 879 878 6
a 879 880 3
a 880 879 3
a 880 881 7
a 881 880 7
a 883 884 3
a 884 883 3
a 884 885 7
a 885 884 7
a 885 886 10
a 886 885 10
a 886 887 2
a 887 886 2
a 887 888 3
a 888 887 3
a 888 889 9
a 889 888 9
a 889 890 10
a 890 889 10
a 890 891 9
a 891 890 9
a 891 892 9
a 892 891 9
a 892 893 10
a 893 892 10
a 893 894 5
a 894 893 5
a 894 895 4
a 895 894 4
a 895 896 9
a 896 895 9
a 896 897 5
a 897 896 5
a 897 898 6
a 898 897 6
a 898 899 10
a 899 898 10
a 899 900 8
a 900 899 8
